n_res = 4;
rc = [ 20, 21, 17, 14 ];
n_tasks = 90;
d = [ 6, 7, 1, 10, 6, 5, 5, 3, 5, 6, 9, 8, 8, 3, 8, 3, 2, 7, 9, 10, 3, 8, 6, 3, 2, 10, 2, 3, 2, 5, 6, 6, 7, 7, 10, 9, 7, 3, 5, 3, 4, 6, 5, 4, 3, 6, 9, 8, 2, 7, 3, 5, 10, 6, 9, 10, 5, 7, 9, 4, 10, 7, 4, 1, 5, 3, 3, 2, 8, 9, 7, 5, 7, 5, 8, 3, 10, 6, 1, 8, 1, 1, 8, 8, 8, 1, 8, 2, 2, 5 ];
rr = [| 6, 0, 0, 0, 4, 10, 8, 0, 0, 0, 1, 0, 0, 7, 1, 0, 0, 1, 0, 0, 0, 0, 4, 5, 8, 10, 0, 2, 0, 0, 0, 0, 0, 0, 5, 0, 0, 0, 0, 9, 1, 4, 8, 0, 0, 6, 0, 0, 0, 0, 1, 3, 8, 6, 0, 7, 6, 0, 0, 0, 1, 0, 5, 2, 0, 0, 0, 10, 0, 0, 5, 0, 0, 6, 0, 0, 0, 0, 0, 0, 0, 0, 6, 8, 0, 0, 0, 0, 0, 0
      | 0, 1, 0, 0, 0, 0, 0, 0, 0, 0, 0, 0, 0, 0, 0, 0, 0, 0, 0, 8, 0, 0, 0, 0, 0, 0, 0, 0, 0, 0, 5, 4, 7, 0, 0, 0, 5, 9, 0, 0, 0, 0, 0, 0, 0, 0, 0, 3, 2, 2, 0, 0, 0, 0, 10, 0, 0, 0, 5, 0, 0, 8, 0, 0, 8, 0, 6, 0, 0, 5, 0, 0, 1, 0, 0, 1, 7, 5, 0, 0, 0, 2, 0, 0, 0, 0, 7, 0, 2, 4
      | 0, 0, 0, 4, 0, 0, 0, 0, 0, 9, 0, 2, 0, 0, 0, 0, 9, 0, 3, 0, 0, 0, 0, 0, 0, 0, 7, 0, 2, 7, 0, 0, 0, 7, 0, 1, 0, 0, 8, 0, 0, 0, 0, 0, 0, 0, 6, 0, 0, 0, 0, 0, 0, 0, 0, 0, 0, 4, 0, 6, 0, 0, 0, 0, 0, 0, 0, 0, 2, 0, 0, 3, 0, 0, 1, 0, 0, 0, 0, 0, 4, 0, 0, 0, 0, 0, 0, 0, 0, 0
      | 0, 0, 10, 0, 0, 0, 0, 3, 9, 0, 0, 0, 1, 0, 0, 2, 0, 0, 0, 0, 5, 2, 0, 0, 0, 0, 0, 0, 0, 0, 0, 0, 0, 0, 0, 0, 0, 0, 0, 0, 0, 0, 0, 7, 3, 0, 0, 0, 0, 0, 0, 0, 0, 0, 0, 0, 0, 0, 0, 0, 0, 0, 0, 0, 0, 1, 0, 0, 0, 0, 0, 0, 0, 0, 0, 0, 0, 0, 10, 9, 0, 0, 0, 0, 2, 10, 0, 2, 0, 0 |];
suc = [ { 5, 8, 10 },
       { 25, 35 },
       { 4, 6, 32 },
       { 46 },
       { 7, 28, 44 },
       { 25, 40, 48 },
       { 17, 19, 24 },
       { 9, 20, 39 },
       { 12, 16, 31 },
       { 11, 13, 53 },
       { 15 },
       { 14, 22, 29 },
       { 21, 30, 61 },
       { 41 },
       { 34 },
       { 18, 27, 38 },
       { 23, 55 },
       { 37 },
       { 56, 60 },
       { 71 },
       { 27 },
       { 72 },
       { 26 },
       { 55 },
       { 73 },
       { 54 },
       { 34, 41, 79 },
       { 45, 68 },
       { 44 },
       { 33, 83, 90 },
       { 67, 72, 75 },
       { 69 },
       { 36, 66 },
       { 43, 47 },
       { 58 },
       { 59, 68 },
       { 44, 50 },
       { 57 },
       { 76 },
       { 64, 76 },
       { 42 },
       { 54 },
       { 65 },
       { 51 },
       { 50, 52 },
       { 49, 87 },
       { 75, 84 },
       { 59 },
       { 63 },
       { 59 },
       { 62, 81, 85 },
       { 69 },
       { 84 },
       { 65, 82 },
       { 63 },
       { 73 },
       { 80 },
       { 80 },
       { 77 },
       { 70 },
       { 78 },
       { 86 },
       { 88 },
       { 73 },
       { 74 },
       { 89 },
       { 81 },
       { 78 },
       { 79 },
       { 71, 87 },
       { 75 },
       { 85 },
       { 84, 86 },
       { 88 },
       { 77 },
       { 86 },
       { 78 },
       { 80 },
       { 87 },
       { 88 },
       { 82 },
       { 83 },
       { 89 },
       { 85 },
       { 89 },
       { 90 },
       { 90 },
       {  },
       {  },
       {  } ];
